
n_res = 6;
rcap = [70, 79, 85, 86, 816, 853];
rtype = [1, 1, 1, 1, 2, 2];
n_tasks = 50;
modes =  [{1, 2, 3, 4, 5, 6, 7, 8, 9}, {10, 11, 12, 13, 14, 15, 16, 17, 18}, {19, 20, 21, 22, 23, 24, 25, 26, 27}, {28, 29, 30, 31, 32, 33, 34, 35, 36}, {37, 38, 39, 40, 41, 42, 43, 44, 45}, {46, 47, 48, 49, 50, 51, 52, 53, 54}, {55, 56, 57, 58, 59, 60, 61, 62, 63}, {64, 65, 66, 67, 68, 69, 70, 71, 72}, {73, 74, 75, 76, 77, 78, 79, 80, 81}, {82, 83, 84, 85, 86, 87, 88, 89, 90}, {91, 92, 93, 94, 95, 96, 97, 98, 99}, {100, 101, 102, 103, 104, 105, 106, 107, 108}, {109, 110, 111, 112, 113, 114, 115, 116, 117}, {118, 119, 120, 121, 122, 123, 124, 125, 126}, {127, 128, 129, 130, 131, 132, 133, 134, 135}, {136, 137, 138, 139, 140, 141, 142, 143, 144}, {145, 146, 147, 148, 149, 150, 151, 152, 153}, {154, 155, 156, 157, 158, 159, 160, 161, 162}, {163, 164, 165, 166, 167, 168, 169, 170, 171}, {172, 173, 174, 175, 176, 177, 178, 179, 180}, {181, 182, 183, 184, 185, 186, 187, 188, 189}, {190, 191, 192, 193, 194, 195, 196, 197, 198}, {199, 200, 201, 202, 203, 204, 205, 206, 207}, {208, 209, 210, 211, 212, 213, 214, 215, 216}, {217, 218, 219, 220, 221, 222, 223, 224, 225}, {226, 227, 228, 229, 230, 231, 232, 233, 234}, {235, 236, 237, 238, 239, 240, 241, 242, 243}, {244, 245, 246, 247, 248, 249, 250, 251, 252}, {253, 254, 255, 256, 257, 258, 259, 260, 261}, {262, 263, 264, 265, 266, 267, 268, 269, 270}, {271, 272, 273, 274, 275, 276, 277, 278, 279}, {280, 281, 282, 283, 284, 285, 286, 287, 288}, {289, 290, 291, 292, 293, 294, 295, 296, 297}, {298, 299, 300, 301, 302, 303, 304, 305, 306}, {307, 308, 309, 310, 311, 312, 313, 314, 315}, {316, 317, 318, 319, 320, 321, 322, 323, 324}, {325, 326, 327, 328, 329, 330, 331, 332, 333}, {334, 335, 336, 337, 338, 339, 340, 341, 342}, {343, 344, 345, 346, 347, 348, 349, 350, 351}, {352, 353, 354, 355, 356, 357, 358, 359, 360}, {361, 362, 363, 364, 365, 366, 367, 368, 369}, {370, 371, 372, 373, 374, 375, 376, 377, 378}, {379, 380, 381, 382, 383, 384, 385, 386, 387}, {388, 389, 390, 391, 392, 393, 394, 395, 396}, {397, 398, 399, 400, 401, 402, 403, 404, 405}, {406, 407, 408, 409, 410, 411, 412, 413, 414}, {415, 416, 417, 418, 419, 420, 421, 422, 423}, {424, 425, 426, 427, 428, 429, 430, 431, 432}, {433, 434, 435, 436, 437, 438, 439, 440, 441}, {442, 443, 444, 445, 446, 447, 448, 449, 450}];
succ =  [{8, 2}, {23, 22, 20, 19, 6}, {40, 28, 23, 22, 16, 12}, {24, 22, 6}, {26, 24, 22, 21, 20, 18, 17}, {41, 17, 12}, {31, 26, 24, 21, 18, 17}, {40, 29, 26, 25, 22, 19}, {31, 29, 25, 24, 22, 20}, {41, 27, 15}, {50, 41, 40, 39, 36, 34, 31, 30, 29, 26, 23}, {50, 36, 35, 31, 30, 26, 21, 18}, {50, 40, 36, 27, 26, 18}, {32, 26, 25, 24, 22}, {40, 26, 24, 21}, {27, 26, 24, 21}, {50, 40, 39, 36, 34, 32, 27, 25}, {39, 34, 32, 29, 25}, {49, 37, 32, 24}, {50, 47, 38, 37, 36, 30, 28}, {47, 39, 34, 32, 25}, {50, 49, 48, 47, 46, 39, 37, 36, 35}, {49, 47, 45, 38, 37, 35, 33, 32}, {50, 47, 46, 39, 35, 34, 30}, {49, 48, 38, 37, 33}, {48, 47, 45, 44, 42, 37}, {49, 47, 46, 45, 43, 38}, {45, 33, 32}, {47, 45, 44, 43, 42}, {48, 45, 43, 42}, {49, 48, 44, 42}, {46, 43, 42}, {44, 42}, {44, 43}, {44, 42}, {43, 42}, {43}, {42}, {45}, {46}, {46}, {}, {}, {}, {}, {}, {}, {}, {}, {}];
n_opt = 450;
dur = [1, 5, 8, 13, 15, 19, 22, 23, 24, 1, 5, 6, 11, 12, 14, 15, 16, 17, 5, 8, 11, 12, 13, 15, 25, 26, 28, 4, 10, 14, 16, 21, 22, 26, 27, 28, 1, 2, 3, 8, 10, 13, 19, 26, 30, 2, 6, 9, 12, 13, 14, 19, 28, 29, 1, 2, 7, 11, 13, 24, 26, 29, 30, 7, 10, 11, 14, 17, 18, 22, 28, 29, 2, 3, 14, 16, 20, 21, 22, 23, 29, 1, 3, 8, 9, 10, 12, 15, 16, 20, 2, 5, 6, 9, 10, 11, 15, 20, 24, 4, 5, 6, 7, 8, 14, 15, 18, 22, 1, 5, 9, 14, 20, 22, 23, 24, 26, 5, 7, 8, 13, 14, 16, 21, 24, 30, 1, 2, 3, 5, 9, 11, 15, 19, 30, 2, 5, 14, 16, 17, 20, 21, 22, 30, 1, 2, 4, 7, 12, 13, 21, 22, 24, 1, 9, 13, 14, 17, 19, 20, 22, 29, 1, 5, 9, 15, 16, 19, 20, 23, 25, 1, 2, 8, 10, 11, 16, 27, 28, 30, 1, 2, 7, 8, 9, 15, 16, 19, 28, 2, 3, 4, 12, 14, 15, 17, 24, 25, 2, 4, 5, 7, 8, 9, 12, 15, 28, 3, 4, 13, 19, 23, 24, 25, 26, 30, 7, 12, 13, 15, 17, 22, 23, 26, 29, 2, 3, 4, 6, 13, 15, 18, 19, 25, 1, 5, 6, 7, 12, 17, 22, 26, 27, 5, 11, 13, 14, 17, 19, 21, 23, 27, 5, 17, 19, 21, 23, 24, 28, 29, 30, 1, 2, 3, 4, 5, 6, 19, 22, 23, 1, 4, 6, 7, 9, 15, 23, 24, 30, 8, 9, 10, 14, 17, 18, 19, 20, 27, 2, 3, 4, 5, 8, 11, 13, 20, 28, 1, 2, 3, 13, 18, 19, 22, 23, 29, 4, 7, 11, 18, 19, 21, 28, 29, 30, 3, 4, 5, 11, 13, 18, 20, 21, 22, 2, 5, 6, 8, 9, 12, 23, 25, 27, 1, 2, 6, 13, 14, 22, 23, 24, 30, 1, 2, 3, 6, 19, 20, 23, 25, 26, 5, 8, 10, 17, 19, 21, 22, 24, 29, 4, 7, 12, 14, 15, 18, 23, 26, 28, 1, 2, 3, 4, 13, 21, 22, 24, 25, 3, 4, 9, 13, 16, 17, 19, 28, 29, 6, 10, 12, 13, 17, 21, 22, 27, 28, 2, 3, 5, 13, 21, 22, 24, 25, 28, 5, 10, 15, 16, 17, 18, 21, 22, 23, 3, 6, 7, 10, 11, 13, 17, 19, 29, 1, 3, 15, 16, 22, 23, 26, 29, 30, 1, 2, 7, 20, 23, 24, 26, 29, 30, 3, 5, 14, 15, 20, 22, 28, 29, 30];
rreq = [|14, 12, 12, 12, 11, 10, 10, 10, 9, 16, 14, 13, 13, 12, 11, 10, 9, 8, 19, 17, 17, 17, 16, 16, 15, 15, 14, 5, 5, 5, 4, 4, 3, 3, 2, 2, 16, 16, 16, 16, 15, 15, 14, 14, 14, 21, 21, 20, 19, 16, 15, 15, 13, 11, 8, 8, 8, 8, 8, 8, 8, 8, 8, 30, 28, 28, 27, 25, 24, 23, 23, 22, 18, 15, 13, 12, 12, 9, 8, 7, 5, 19, 18, 17, 15, 14, 14, 11, 11, 10, 17, 15, 15, 14, 13, 11, 11, 9, 9, 10, 9, 8, 7, 7, 6, 6, 6, 5, 17, 16, 14, 12, 10, 7, 5, 3, 3, 19, 17, 16, 16, 15, 13, 13, 12, 11, 11, 9, 9, 8, 6, 5, 4, 3, 3, 10, 10, 8, 8, 7, 6, 5, 4, 4, 15, 15, 13, 13, 12, 11, 9, 8, 7, 24, 23, 23, 23, 23, 22, 22, 22, 22, 17, 15, 15, 11, 10, 8, 7, 4, 4, 29, 28, 27, 26, 25, 23, 22, 21, 21, 22, 22, 19, 19, 16, 14, 12, 12, 10, 28, 28, 27, 27, 27, 26, 25, 25, 25, 13, 12, 12, 12, 11, 11, 11, 11, 11, 20, 19, 19, 19, 18, 18, 18, 18, 18, 15, 13, 11, 9, 9, 7, 6, 4, 3, 16, 16, 16, 16, 15, 15, 15, 15, 15, 19, 18, 17, 15, 12, 10, 9, 6, 5, 26, 25, 24, 23, 23, 23, 21, 20, 20, 24, 21, 17, 15, 12, 11, 8, 5, 3, 27, 24, 22, 17, 14, 11, 8, 6, 2, 11, 10, 10, 9, 7, 5, 5, 3, 2, 9, 9, 7, 6, 6, 6, 4, 4, 3, 22, 20, 20, 19, 15, 14, 12, 11, 9, 21, 19, 17, 16, 14, 10, 7, 5, 3, 22, 21, 21, 21, 21, 21, 21, 21, 21, 5, 4, 4, 3, 2, 2, 1, 1, 1, 28, 28, 27, 25, 24, 23, 23, 21, 20, 21, 19, 19, 19, 18, 18, 17, 17, 16, 15, 12, 11, 9, 8, 6, 6, 4, 2, 29, 25, 25, 24, 21, 21, 18, 17, 15, 12, 11, 11, 10, 10, 10, 9, 9, 9, 24, 22, 21, 19, 17, 16, 15, 12, 11, 20, 19, 19, 19, 19, 19, 19, 19, 19, 25, 24, 24, 23, 22, 22, 22, 21, 21, 24, 23, 23, 23, 22, 22, 21, 21, 21, 8, 7, 7, 7, 6, 6, 6, 6, 6, 27, 23, 22, 21, 20, 19, 16, 14, 13, 21, 19, 16, 14, 13, 12, 10, 7, 7, 18, 16, 13, 10, 8, 8, 5, 4, 2, 10, 9, 9, 9, 9, 9, 9, 9, 9
 |15, 14, 14, 13, 12, 12, 11, 9, 9, 17, 17, 13, 13, 10, 8, 5, 3, 2, 20, 18, 18, 18, 16, 16, 15, 14, 14, 16, 15, 15, 14, 12, 12, 11, 10, 9, 12, 11, 9, 9, 8, 6, 5, 2, 2, 20, 20, 20, 20, 20, 20, 20, 20, 20, 3, 2, 2, 2, 2, 1, 1, 1, 1, 23, 21, 19, 17, 15, 14, 13, 11, 8, 29, 28, 26, 26, 24, 24, 23, 21, 20, 18, 16, 15, 14, 13, 13, 11, 10, 10, 26, 24, 21, 20, 13, 12, 8, 6, 3, 22, 21, 20, 20, 20, 19, 18, 18, 18, 17, 16, 15, 14, 14, 13, 11, 10, 10, 22, 22, 18, 18, 14, 13, 9, 7, 5, 29, 27, 23, 21, 19, 17, 17, 15, 13, 24, 22, 20, 18, 16, 15, 15, 12, 11, 7, 6, 5, 5, 4, 4, 2, 2, 1, 22, 21, 18, 15, 14, 12, 7, 4, 4, 21, 18, 15, 14, 12, 10, 8, 6, 6, 26, 25, 22, 21, 19, 19, 15, 14, 12, 14, 14, 14, 14, 14, 13, 13, 13, 13, 15, 14, 14, 14, 13, 12, 12, 10, 10, 25, 25, 24, 22, 21, 20, 20, 19, 17, 28, 27, 26, 25, 25, 23, 23, 21, 20, 21, 21, 21, 20, 20, 20, 20, 19, 19, 23, 22, 22, 20, 19, 18, 17, 17, 16, 15, 13, 13, 13, 12, 12, 11, 10, 10, 7, 7, 7, 6, 6, 5, 4, 4, 4, 24, 24, 24, 24, 24, 23, 23, 23, 23, 24, 24, 23, 22, 22, 21, 21, 21, 20, 27, 27, 24, 18, 16, 15, 10, 6, 3, 18, 16, 16, 13, 12, 12, 10, 9, 7, 14, 13, 13, 12, 12, 11, 11, 10, 9, 16, 15, 14, 12, 12, 10, 8, 8, 7, 18, 17, 16, 13, 13, 10, 9, 7, 5, 30, 26, 22, 18, 14, 13, 8, 7, 3, 21, 19, 18, 18, 17, 15, 15, 14, 12, 24, 24, 24, 24, 24, 24, 24, 24, 24, 28, 27, 26, 26, 25, 22, 22, 21, 20, 11, 10, 8, 8, 7, 5, 4, 2, 2, 15, 14, 14, 14, 13, 12, 12, 12, 11, 26, 22, 20, 19, 18, 16, 14, 12, 11, 21, 20, 19, 16, 15, 14, 13, 12, 10, 3, 3, 3, 3, 3, 3, 3, 3, 3, 9, 9, 8, 7, 5, 5, 4, 3, 2, 28, 27, 27, 25, 25, 23, 22, 21, 19, 27, 25, 21, 19, 19, 16, 14, 9, 7, 16, 15, 14, 12, 11, 11, 10, 8, 8, 17, 16, 16, 15, 14, 14, 14, 13, 12, 14, 11, 11, 9, 7, 7, 5, 4, 4
 |13, 13, 13, 13, 13, 13, 13, 13, 13, 20, 19, 18, 18, 17, 16, 15, 15, 14, 28, 28, 28, 28, 28, 28, 28, 28, 28, 24, 23, 22, 19, 18, 13, 13, 9, 9, 1, 1, 1, 1, 1, 1, 1, 1, 1, 19, 19, 19, 19, 19, 19, 19, 19, 19, 21, 21, 21, 21, 21, 21, 21, 21, 21, 19, 18, 15, 13, 11, 11, 7, 5, 5, 27, 25, 20, 18, 16, 13, 8, 4, 4, 27, 23, 22, 20, 17, 15, 12, 10, 8, 26, 25, 20, 17, 16, 13, 9, 6, 5, 28, 27, 27, 26, 26, 25, 25, 25, 24, 11, 11, 10, 10, 9, 9, 9, 8, 8, 27, 27, 26, 25, 25, 24, 24, 23, 22, 16, 15, 14, 14, 13, 13, 13, 12, 12, 20, 20, 19, 19, 18, 17, 17, 16, 16, 14, 13, 12, 11, 11, 11, 9, 9, 8, 23, 20, 18, 16, 16, 13, 13, 11, 9, 17, 16, 12, 10, 10, 8, 6, 5, 2, 7, 6, 6, 5, 5, 4, 3, 3, 3, 18, 16, 15, 12, 11, 11, 8, 7, 7, 28, 26, 26, 25, 25, 24, 24, 23, 23, 15, 13, 13, 12, 9, 9, 6, 5, 4, 25, 25, 25, 25, 25, 25, 25, 25, 25, 28, 22, 20, 19, 15, 11, 8, 5, 4, 20, 18, 15, 13, 13, 11, 7, 7, 4, 23, 19, 19, 16, 12, 10, 9, 5, 3, 28, 28, 24, 22, 20, 20, 16, 16, 13, 23, 22, 20, 17, 14, 12, 9, 7, 5, 25, 25, 24, 23, 22, 22, 21, 21, 20, 25, 24, 24, 23, 22, 22, 22, 21, 21, 21, 20, 20, 20, 20, 20, 20, 20, 20, 29, 27, 27, 27, 26, 25, 25, 25, 24, 18, 17, 15, 14, 14, 13, 12, 10, 10, 23, 22, 21, 20, 19, 17, 16, 15, 15, 22, 21, 20, 20, 18, 17, 16, 15, 13, 21, 19, 18, 14, 13, 11, 9, 5, 5, 27, 27, 27, 27, 27, 27, 27, 27, 27, 23, 22, 22, 22, 22, 22, 22, 22, 22, 26, 24, 24, 24, 23, 22, 21, 21, 20, 24, 22, 21, 21, 19, 18, 15, 13, 13, 18, 16, 15, 13, 10, 7, 7, 4, 1, 29, 26, 24, 23, 22, 20, 16, 14, 14, 28, 26, 23, 22, 19, 18, 16, 14, 13, 22, 21, 21, 19, 19, 19, 18, 17, 16, 18, 17, 17, 16, 16, 15, 15, 14, 14, 11, 9, 9, 7, 7, 6, 5, 5, 4, 29, 28, 25, 24, 22, 22, 21, 18, 18, 14, 14, 13, 13, 12, 12, 11, 11, 10, 25, 24, 23, 22, 22, 21, 21, 19, 19
 |16, 16, 15, 14, 14, 13, 12, 12, 11, 5, 4, 4, 4, 3, 3, 3, 2, 2, 23, 23, 21, 21, 19, 18, 17, 16, 15, 26, 25, 21, 20, 16, 13, 10, 10, 7, 19, 17, 17, 16, 13, 12, 9, 9, 6, 28, 28, 26, 25, 25, 23, 22, 21, 20, 12, 12, 12, 12, 12, 12, 12, 12, 12, 27, 27, 26, 25, 24, 23, 22, 21, 21, 27, 27, 24, 21, 18, 17, 14, 11, 7, 15, 14, 14, 12, 11, 10, 9, 8, 8, 24, 21, 20, 17, 17, 16, 12, 12, 10, 21, 20, 19, 19, 19, 18, 18, 17, 17, 26, 25, 23, 21, 20, 19, 16, 15, 15, 28, 28, 27, 27, 25, 25, 25, 23, 23, 20, 18, 17, 14, 14, 13, 11, 9, 8, 21, 17, 16, 12, 10, 8, 8, 3, 3, 7, 5, 5, 5, 4, 3, 2, 1, 1, 15, 14, 14, 13, 13, 12, 12, 11, 11, 24, 23, 21, 21, 20, 19, 19, 17, 17, 20, 19, 17, 16, 16, 15, 13, 12, 11, 28, 23, 21, 17, 14, 14, 9, 9, 4, 28, 27, 25, 25, 24, 23, 21, 20, 20, 9, 9, 8, 7, 6, 5, 3, 3, 1, 17, 16, 16, 15, 15, 14, 14, 13, 13, 30, 27, 26, 26, 24, 22, 21, 20, 19, 27, 23, 22, 20, 18, 15, 12, 11, 7, 17, 17, 17, 16, 16, 15, 14, 14, 14, 24, 23, 23, 23, 22, 21, 21, 20, 19, 15, 11, 10, 9, 7, 5, 4, 3, 1, 29, 26, 24, 20, 19, 15, 13, 12, 8, 25, 24, 24, 23, 23, 23, 23, 22, 22, 29, 29, 28, 28, 28, 27, 26, 26, 26, 18, 17, 15, 12, 11, 7, 6, 5, 3, 28, 28, 28, 28, 27, 27, 26, 26, 26, 24, 24, 24, 24, 24, 24, 24, 24, 24, 9, 8, 8, 7, 7, 7, 7, 6, 6, 11, 11, 10, 8, 7, 5, 5, 3, 2, 25, 25, 25, 24, 24, 23, 22, 22, 22, 23, 20, 19, 18, 16, 15, 13, 11, 9, 22, 21, 17, 15, 14, 14, 11, 9, 8, 11, 11, 10, 9, 8, 6, 6, 5, 3, 25, 25, 24, 22, 22, 21, 20, 20, 19, 11, 11, 10, 10, 9, 8, 8, 7, 7, 19, 17, 17, 17, 16, 16, 15, 15, 14, 26, 24, 22, 20, 18, 16, 14, 12, 11, 12, 12, 11, 10, 9, 8, 7, 6, 6, 20, 18, 17, 14, 14, 13, 12, 10, 9, 18, 17, 15, 13, 11, 10, 7, 5, 4, 28, 26, 25, 24, 22, 22, 19, 19, 17, 19, 18, 15, 15, 10, 8, 6, 6, 3
 |4, 4, 4, 4, 4, 4, 4, 4, 4, 19, 17, 17, 15, 14, 12, 12, 10, 8, 2, 1, 1, 1, 1, 1, 1, 1, 1, 16, 15, 13, 13, 12, 10, 7, 7, 6, 21, 19, 16, 15, 13, 10, 9, 6, 4, 21, 19, 18, 15, 13, 10, 8, 6, 1, 4, 4, 4, 4, 3, 3, 2, 2, 2, 7, 6, 5, 5, 3, 3, 3, 1, 1, 25, 25, 25, 25, 24, 24, 24, 24, 24, 19, 18, 14, 14, 10, 10, 6, 5, 4, 20, 20, 18, 16, 14, 12, 11, 10, 8, 12, 11, 11, 10, 8, 6, 5, 5, 4, 29, 28, 27, 25, 24, 23, 22, 21, 21, 8, 8, 8, 8, 8, 8, 8, 8, 8, 18, 17, 16, 14, 13, 12, 11, 11, 9, 29, 25, 23, 21, 21, 19, 18, 16, 14, 21, 21, 21, 20, 20, 20, 20, 19, 19, 16, 15, 14, 13, 12, 10, 9, 9, 8, 25, 25, 24, 22, 22, 22, 20, 19, 19, 28, 25, 24, 23, 21, 20, 19, 18, 17, 15, 14, 14, 14, 13, 12, 11, 10, 10, 27, 26, 26, 26, 26, 26, 26, 26, 26, 16, 15, 14, 13, 13, 12, 11, 11, 10, 15, 13, 12, 11, 11, 9, 8, 6, 6, 21, 19, 19, 19, 18, 18, 17, 16, 16, 25, 24, 23, 22, 21, 20, 20, 18, 18, 3, 2, 2, 2, 2, 1, 1, 1, 1, 12, 10, 9, 9, 8, 7, 6, 5, 3, 15, 13, 13, 11, 11, 10, 10, 9, 8, 17, 17, 17, 17, 16, 16, 15, 15, 15, 28, 26, 25, 22, 21, 21, 18, 17, 17, 21, 18, 17, 14, 14, 11, 8, 8, 4, 29, 29, 28, 27, 26, 26, 26, 25, 24, 11, 11, 10, 9, 7, 6, 5, 5, 3, 27, 27, 27, 27, 27, 26, 26, 26, 26, 17, 17, 17, 17, 17, 16, 16, 16, 16, 28, 24, 23, 21, 19, 19, 18, 14, 13, 22, 22, 22, 21, 21, 21, 21, 20, 20, 24, 20, 19, 14, 13, 11, 9, 5, 2, 23, 20, 18, 17, 15, 15, 12, 11, 9, 14, 14, 14, 14, 14, 14, 14, 14, 14, 14, 12, 11, 9, 9, 7, 4, 4, 3, 19, 18, 16, 16, 14, 13, 12, 12, 11, 29, 29, 29, 28, 28, 28, 28, 27, 27, 27, 26, 26, 25, 24, 24, 24, 23, 22, 16, 13, 13, 10, 8, 7, 5, 4, 3, 9, 9, 9, 9, 9, 8, 8, 8, 8, 8, 7, 7, 7, 6, 6, 6, 6, 6, 14, 13, 13, 13, 13, 13, 13, 13, 13, 17, 16, 14, 13, 12, 12, 10, 10, 9
 |27, 26, 22, 18, 17, 12, 12, 6, 6, 23, 20, 18, 14, 14, 11, 9, 6, 4, 4, 3, 3, 2, 3, 3, 3, 3, 3, 20, 18, 18, 17, 15, 13, 12, 11, 9, 18, 17, 14, 13, 10, 9, 7, 6, 2, 15, 14, 13, 13, 12, 11, 11, 11, 10, 14, 14, 13, 12, 13, 13, 13, 12, 11, 23, 19, 18, 16, 15, 12, 10, 8, 7, 10, 8, 7, 6, 6, 5, 4, 2, 2, 16, 15, 13, 13, 12, 12, 11, 10, 9, 26, 26, 25, 24, 24, 23, 23, 22, 21, 18, 17, 17, 17, 16, 16, 16, 16, 16, 25, 22, 20, 16, 15, 12, 8, 5, 4, 14, 13, 13, 12, 12, 12, 11, 11, 11, 22, 22, 18, 17, 16, 14, 11, 8, 8, 25, 22, 18, 17, 13, 13, 11, 8, 7, 18, 16, 16, 15, 14, 14, 12, 11, 11, 21, 20, 19, 19, 17, 15, 15, 13, 12, 24, 23, 21, 21, 20, 19, 18, 17, 15, 26, 22, 19, 16, 16, 11, 10, 8, 4, 21, 21, 20, 20, 19, 19, 19, 18, 18, 14, 12, 11, 9, 9, 7, 7, 6, 5, 15, 14, 14, 12, 11, 11, 10, 9, 8, 25, 24, 24, 24, 23, 23, 22, 22, 22, 19, 18, 14, 12, 10, 8, 8, 4, 3, 25, 24, 22, 20, 17, 15, 14, 10, 9, 21, 19, 18, 15, 14, 12, 10, 6, 5, 29, 27, 23, 21, 16, 12, 11, 7, 5, 23, 21, 20, 19, 17, 16, 15, 14, 13, 27, 25, 20, 19, 15, 11, 8, 5, 3, 7, 7, 7, 7, 7, 7, 7, 7, 7, 27, 26, 25, 24, 23, 23, 23, 22, 21, 11, 10, 10, 9, 7, 7, 6, 4, 4, 27, 25, 25, 24, 23, 23, 22, 21, 20, 16, 14, 12, 11, 8, 7, 5, 2, 2, 28, 28, 28, 27, 27, 27, 26, 26, 26, 4, 4, 4, 3, 3, 2, 2, 1, 1, 16, 15, 13, 12, 11, 9, 9, 6, 6, 21, 17, 16, 13, 12, 11, 10, 8, 6, 17, 15, 13, 12, 10, 8, 5, 5, 2, 23, 23, 23, 23, 23, 23, 23, 23, 23, 25, 23, 22, 19, 17, 15, 14, 11, 11, 20, 19, 19, 19, 19, 19, 19, 19, 19, 14, 13, 12, 10, 9, 8, 6, 5, 5, 29, 28, 28, 27, 27, 26, 25, 25, 25, 9, 8, 8, 8, 8, 8, 8, 8, 8, 17, 13, 13, 11, 10, 7, 7, 5, 3, 11, 9, 8, 8, 6, 5, 3, 3, 1, 16, 16, 16, 16, 16, 15, 16, 16, 16, 28, 26, 26, 25, 22, 22, 20, 18, 18|];